1440.0
[[15. 13.  1.  3. 12.  9. 18.  7. 10. 19.  8.  0. 11. 14.  2.  6. 16.  4.
  17.  5.]
 [15. 13.  1.  3. 12.  9. 18.  7. 10. 19.  8.  0. 11. 14.  2.  6. 16.  4.
  17.  5.]
 [15. 13.  1.  3. 12.  9. 18.  7. 10. 19.  8.  0. 11. 14.  2.  6. 16.  4.
  17.  5.]
 [15. 13.  1.  3. 12.  9. 18.  7. 10. 19.  8.  0. 11. 14.  2.  6. 16.  4.
  17.  5.]
 [15. 13.  1.  3. 12.  9. 18.  7. 10. 19.  8.  0. 11. 14.  2.  6. 16.  4.
  17.  5.]
 [15. 13.  1.  3. 12.  9. 18.  7. 10. 19.  8.  0. 11. 14.  2.  6. 16.  4.
  17.  5.]
 [15. 13.  1.  3. 12.  9. 18.  7. 10. 19.  8.  0. 11. 14.  2.  6. 16.  4.
  17.  5.]
 [15. 13.  1.  3. 12.  9. 18.  7. 10. 19.  8.  0. 11. 14.  2.  6. 16.  4.
  17.  5.]
 [15. 13.  1.  3. 12.  9. 18.  7. 10. 19.  8.  0. 11. 14.  2.  6. 16.  4.
  17.  5.]
 [15. 13.  1.  3. 12.  9. 18.  7. 10. 19.  8.  0. 11. 14.  2.  6. 16.  4.
  17.  5.]]
